p cnf 7230 17
-845 -974 0
-845 -976 0
-845 -978 0
732 845 -973 0
735 845 -975 0
738 845 -977 0
973 974 0
-738 -978 0
975 976 0
-735 -976 0
-732 -974 0
977 978 0
741 845 980 0
971 972 0
-971 -972 0
-741 -980 0
-845 -980 0
